Solver command line: ['C:\\gurobi911\\win64\\bin\\gurobi.bat']

Academic license - for non-commercial use only - expires 2021-03-22

Using license file C:\Users\Dell\gurobi.lic

Read LP format model from file C:\Users\Dell\AppData\Local\Temp\tmpi3yksjud.pyomo.lp

Reading time = 0.52 seconds

x105127: 105123 rows, 70087 columns, 258096 nonzeros

Read MIP start from file C:\Users\Dell\AppData\Local\Temp\tmpzq92jzwx.gurobi.mst

Changed value of parameter timelimit to 200.0

   Prev: inf  Min: 0.0  Max: inf  Default: inf

Changed value of parameter mipgap to 0.0

   Prev: 0.0001  Min: 0.0  Max: inf  Default: 0.0001

Gurobi Optimizer version 9.1.1 build v9.1.1rc0 (win64)

Thread count: 6 physical cores, 12 logical processors, using up to 12 threads

Optimize a model with 105123 rows, 70087 columns and 258096 nonzeros

Model fingerprint: 0xf6bea31d

Variable types: 52565 continuous, 17522 integer (0 binary)

Coefficient statistics:

  Matrix range     [1e-02, 3e+01]

  Objective range  [1e+00, 5e+04]

  Bounds range     [1e+00, 2e+03]

  RHS range        [1e+00, 3e+01]



Warning: Completing partial solution with 17520 unfixed non-continuous variables out of 17522

User MIP start produced solution with objective 1.00591e+06 (10.16s)

User MIP start produced solution with objective 247730 (11.60s)

User MIP start produced solution with objective 247701 (11.73s)

User MIP start produced solution with objective 247658 (27.24s)

User MIP start produced solution with objective 247588 (29.08s)

User MIP start produced solution with objective 247550 (29.94s)

User MIP start produced solution with objective 247473 (32.32s)

User MIP start produced solution with objective 247453 (32.95s)

User MIP start produced solution with objective 247357 (33.36s)

User MIP start produced solution with objective 247257 (33.77s)

User MIP start produced solution with objective 247133 (34.20s)

User MIP start produced solution with objective 247033 (34.67s)

User MIP start produced solution with objective 246991 (37.87s)

User MIP start produced solution with objective 246776 (38.95s)

User MIP start produced solution with objective 246531 (39.39s)

User MIP start produced solution with objective 246254 (39.84s)

User MIP start produced solution with objective 245988 (40.58s)

User MIP start produced solution with objective 245818 (41.10s)

User MIP start produced solution with objective 245565 (41.64s)

User MIP start produced solution with objective 245242 (42.52s)

User MIP start produced solution with objective 244925 (43.54s)

User MIP start produced solution with objective 244722 (44.35s)

Loaded user MIP start with objective 244722

Processed MIP start in 44.49 seconds



Presolve removed 4 rows and 8764 columns

Presolve time: 0.76s

Presolved: 105119 rows, 61323 columns, 249331 nonzeros

Variable types: 43801 continuous, 17522 integer (8761 binary)



Deterministic concurrent LP optimizer: primal and dual simplex (primal and dual model)

Showing first log only...



Presolve removed 35040 rows and 17520 columns

Presolved: 70079 rows, 43803 columns, 179251 nonzeros





Root simplex log...



Iteration    Objective       Primal Inf.    Dual Inf.      Time

       0    1.1623367e+06   0.000000e+00   2.713859e+05     46s

Concurrent spin time: 13.25s



Solved with primal simplex (dual model)



Root relaxation: objective 2.021222e+05, 32546 iterations, 15.45 seconds



    Nodes    |    Current Node    |     Objective Bounds      |     Work

 Expl Unexpl |  Obj  Depth IntInf | Incumbent    BestBd   Gap | It/Node Time



     0     0 202122.237    0 8577 244722.427 202122.237  17.4%     -   65s

H    0     0                    244708.82791 202122.237  17.4%     -   65s

     0     0 202122.237    0 10528 244708.828 202122.237  17.4%     -   71s

     0     0 202122.237    0 8366 244708.828 202122.237  17.4%     -   78s

     0     0 202149.942    0 9915 244708.828 202149.942  17.4%     -   84s

     0     0 209723.682    0 7677 244708.828 209723.682  14.3%     -   89s

     0     0 210654.126    0 5598 244708.828 210654.126  13.9%     -   94s

     0     0 211758.750    0 7669 244708.828 211758.750  13.5%     -  100s

     0     0 211994.751    0 7669 244708.828 211994.751  13.4%     -  102s

     0     0 212071.059    0 7642 244708.828 212071.059  13.3%     -  105s

     0     0 212074.088    0 8201 244708.828 212074.088  13.3%     -  106s

     0     0 212074.178    0 8201 244708.828 212074.178  13.3%     -  106s

     0     0 212074.376    0 8201 244708.828 212074.376  13.3%     -  107s

     0     0 212074.417    0 8201 244708.828 212074.417  13.3%     -  107s

     0     0 212107.421    0 8202 244708.828 212107.421  13.3%     -  111s

     0     0 215776.850    0 8186 244708.828 215776.850  11.8%     -  131s

     0     0 216054.340    0 6412 244708.828 216054.340  11.7%     -  137s

     0     0 216161.519    0 6518 244708.828 216161.519  11.7%     -  140s

     0     0 216188.449    0 6548 244708.828 216188.449  11.7%     -  141s

     0     0 216190.040    0 6557 244708.828 216190.040  11.7%     -  141s

     0     0 217840.862    0 8372 244708.828 217840.862  11.0%     -  159s

H    0     0                    244648.59465 217840.862  11.0%     -  160s

     0     0 218060.250    0 7665 244648.595 218060.250  10.9%     -  164s

     0     0 218135.830    0 8344 244648.595 218135.830  10.8%     -  167s

     0     0 218139.389    0 8330 244648.595 218139.389  10.8%     -  168s

     0     0 218219.566    0 8348 244648.595 218219.566  10.8%     -  170s

     0     0 218270.646    0 8357 244648.595 218270.646  10.8%     -  176s

     0     0 218275.202    0 8356 244648.595 218275.202  10.8%     -  178s

     0     0 218307.696    0 8336 244648.595 218307.696  10.8%     -  179s

     0     0 218307.696    0 8327 244648.595 218307.696  10.8%     -  182s

H    0     0                    244600.57253 218307.696  10.7%     -  194s

     0     2 218307.696    0 8321 244600.573 218307.696  10.7%     -  200s



Cutting planes:

  Learned: 1047

  Gomory: 27

  Cover: 634

  MIR: 13568

  Flow cover: 6622

  RLT: 597

  Relax-and-lift: 1983



Explored 1 nodes (166321 simplex iterations) in 200.04 seconds

Thread count was 12 (of 12 available processors)



Solution count 10: 244601 244649 244709 ... 246254



Time limit reached

Best objective 2.446005725339e+05, best bound 2.183080292463e+05, gap 10.7492%


